43
145
123
138
190
85
157
105
114
57
202
180
163
57
23
242
140
245
12
56
139
231
15
126
34
243
225
9
30
36
52
36
28
4
144
243
243
48
158
98
115
54
27
21
163
90
65
20
78
222
138
180
3
249
52
15
116
227
212
239
107
49
110
89
108
97
56
58
143
113
166
12
177
232
90
144
161
144
51
42
231
118
27
98
98
217
202
240
231
44
192
52
91
128
165
77
76
74
33
155
